Route #1: 0 5 36 40 17 10 38 16 18 0
Route #2: 0 11 13 42 26 7 6 0
Route #3: 0 39 29 14 28 43 4 0
Route #4: 0 8 12 31 27 37 32 41 0
Route #5: 0 2 34 24 46 45 50 23 20 0
Route #6: 0 15 47 30 49 9 1 0
Route #7: 0 22 25 44 21 35 3 19 33 48 0
Cost 1129:
